2,5
4,1
5,7
7,3
9,0
10,7
12,4
14,1
15,8
17,7
19,9
22,1
24,3
26,5
28,7
31,0
33,2
35,4
37,6
39,8
42,0
44,2
46,4
48,6
50,8
53,1
55,3
55,6
55,6
55,6
55,6
55,6
55,6
55,6
55,6
55,6
55,6
55,6
55,6
55,6
55,6
55,6
55,6
55,6
55,6
55,6
55,6
55,6
55,6
55,6
55,6
55,6
55,6
55,6
55,6
55,6
55,6
0,0
0,0
